
Gurobi 12.0.0 (win64, gurobi_cl) logging started Tue Dec  3 19:50:27 2024

Set parameter Username
Set parameter LicenseID to value 2591787
Set parameter LogFile to value "gurobi.log"
Using license file C:\Users\archi\gurobi.lic
Academic license - for non-commercial use only - expires 2025-11-27

Gurobi Optimizer version 12.0.0 build v12.0.0rc1 (win64 - Windows 11.0 (22631.2))
Copyright (c) 2024, Gurobi Optimization, LLC

Read LP format model from file C:\Users\archi\AppData\Local\Temp\dd98da772e6c487f888306201f41a54d-pulp.lp
Reading time = 0.03 seconds
OBJ: 259 rows, 4000 columns, 16039 nonzeros

Using Gurobi shared library C:\gurobi1200\win64\bin\gurobi120.dll

CPU model: Intel(R) Core(TM) i5-10210U CPU @ 1.60GHz, instruction set [SSE2|AVX|AVX2]
Thread count: 4 physical cores, 8 logical processors, using up to 8 threads

Optimize a model with 259 rows, 4000 columns and 16039 nonzeros
Model fingerprint: 0x79dd5aa5
Variable types: 0 continuous, 4000 integer (4000 binary)
Coefficient statistics:
  Matrix range     [1e+00, 5e+04]
  Objective range  [1e+00, 1e+00]
  Bounds range     [1e+00, 1e+00]
  RHS range        [1e+00, 1e+00]
Presolve removed 5 rows and 86 columns
Presolve time: 0.07s
Presolved: 254 rows, 3914 columns, 15691 nonzeros
Variable types: 0 continuous, 3914 integer (3914 binary)

Root relaxation: objective 3.779576e+01, 480 iterations, 0.03 seconds (0.01 work units)

    Nodes    |    Current Node    |     Objective Bounds      |     Work
 Expl Unexpl |  Obj  Depth IntInf | Incumbent    BestBd   Gap | It/Node Time

     0     0   37.79576    0   99          -   37.79576      -     -    0s
     0     0   38.00000    0   65          -   38.00000      -     -    0s
     0     0   38.00000    0   65          -   38.00000      -     -    0s
H    0     0                      40.0000000   38.00000  5.00%     -    0s
     0     0   38.00000    0   54   40.00000   38.00000  5.00%     -    0s
     0     0   38.00000    0  116   40.00000   38.00000  5.00%     -    0s
     0     0   38.00000    0  108   40.00000   38.00000  5.00%     -    1s
     0     0   38.00000    0   51   40.00000   38.00000  5.00%     -    1s
     0     0   38.00000    0   51   40.00000   38.00000  5.00%     -    1s
     0     2   38.00000    0   51   40.00000   38.00000  5.00%     -    1s
   671   679   38.00250   95   77   40.00000   38.00000  5.00%  47.8    5s
H 1643  1161                      39.0000000   38.00000  2.56%  36.4    9s
  1648  1164   38.00000   10   86   39.00000   38.00000  2.56%  36.3   10s
  1898  1554   38.00000   43   73   39.00000   38.00000  2.56%  65.8   16s
  2730  1877 infeasible   77        39.00000   38.00000  2.56%  68.7   20s

Cutting planes:
  Gomory: 2
  Cover: 130
  Clique: 35
  MIR: 10
  StrongCG: 12
  Flow cover: 19
  RLT: 3

Explored 3098 nodes (228069 simplex iterations) in 22.57 seconds (15.50 work units)
Thread count was 8 (of 8 available processors)

Solution count 2: 39 40 

Solve interrupted
Best objective 3.900000000000e+01, best bound 3.800000000000e+01, gap 2.5641%

Wrote result file 'C:\Users\archi\AppData\Local\Temp\dd98da772e6c487f888306201f41a54d-pulp.sol'


Gurobi 12.0.0 (win64, gurobi_cl) logging started Tue Dec  3 19:52:17 2024

Set parameter Username
Set parameter LicenseID to value 2591787
Set parameter LogFile to value "gurobi.log"
Using license file C:\Users\archi\gurobi.lic
Academic license - for non-commercial use only - expires 2025-11-27

Gurobi Optimizer version 12.0.0 build v12.0.0rc1 (win64 - Windows 11.0 (22631.2))
Copyright (c) 2024, Gurobi Optimization, LLC

Read LP format model from file C:\Users\archi\AppData\Local\Temp\4e2a38ec85164d37a4426b147124f84f-pulp.lp
Reading time = 1.71 seconds
OBJ: 2564 rows, 391391 columns, 1565954 nonzeros

Using Gurobi shared library C:\gurobi1200\win64\bin\gurobi120.dll

CPU model: Intel(R) Core(TM) i5-10210U CPU @ 1.60GHz, instruction set [SSE2|AVX|AVX2]
Thread count: 4 physical cores, 8 logical processors, using up to 8 threads

Optimize a model with 2564 rows, 391391 columns and 1565954 nonzeros
Model fingerprint: 0x99528a64
Variable types: 0 continuous, 391391 integer (391391 binary)
Coefficient statistics:
  Matrix range     [1e+00, 5e+04]
  Objective range  [1e+00, 1e+00]
  Bounds range     [1e+00, 1e+00]
  RHS range        [1e+00, 1e+00]
Presolve removed 3 rows and 935 columns
Presolve time: 4.23s
Presolved: 2561 rows, 390456 columns, 1562212 nonzeros
Variable types: 0 continuous, 390456 integer (390456 binary)
Deterministic concurrent LP optimizer: primal simplex, dual simplex, and barrier
Showing barrier log only...

Root barrier log...

Ordering time: 0.17s

Barrier statistics:
 AA' NZ     : 1.174e+06
 Factor NZ  : 2.616e+06 (roughly 180 MB of memory)
 Factor Ops : 3.439e+09 (less than 1 second per iteration)
 Threads    : 2

                  Objective                Residual
Iter       Primal          Dual         Primal    Dual     Compl     Time
   0   5.26132570e+02 -9.78800000e+03  7.39e+04 0.00e+00  4.79e+00     8s
   1   3.70019231e+02 -1.07837244e+04  4.13e+03 4.16e-17  2.80e-01     8s
   2   3.75871004e+02 -7.85292179e+03  3.83e+00 3.47e-17  1.07e-02     9s
   3   3.75821512e+02  3.14511174e+02  1.22e-12 3.01e-17  7.84e-05     9s
   4   3.75547845e+02  3.75450390e+02  6.25e-13 1.41e-17  1.25e-07     9s
   5   3.75544248e+02  3.75544151e+02  6.82e-13 1.50e-18  1.25e-10    10s
   6   3.75544244e+02  3.75544244e+02  7.96e-13 1.93e-18  1.25e-13    10s

Barrier solved model in 6 iterations and 10.05 seconds (7.27 work units)
Optimal objective 3.75544244e+02

  Building initial crossover basis                                15s

Root crossover log...

      16 DPushes remaining with DInf 0.0000000e+00                17s
       0 DPushes remaining with DInf 0.0000000e+00                17s

     932 PPushes remaining with PInf 3.1780178e-04                17s
       0 PPushes remaining with PInf 0.0000000e+00                17s

  Push phase complete: Pinf 0.0000000e+00, Dinf 4.9955225e-15     17s


Root simplex log...

Iteration    Objective       Primal Inf.    Dual Inf.      Time
     951    3.7554424e+02   0.000000e+00   0.000000e+00     17s
Concurrent spin time: 0.92s

Solved with barrier

Root relaxation: objective 3.755442e+02, 951 iterations, 12.65 seconds (5.34 work units)

    Nodes    |    Current Node    |     Objective Bounds      |     Work
 Expl Unexpl |  Obj  Depth IntInf | Incumbent    BestBd   Gap | It/Node Time

     0     0  375.54424    0 1509          -  375.54424      -     -   54s
     0     0  376.00000    0 1167          -  376.00000      -     -   62s
     0     0  376.00000    0 1167          -  376.00000      -     -   69s
     0     0  376.00000    0 1278          -  376.00000      -     -  129s
     0     0  376.00000    0 1150          -  376.00000      -     -  150s
     0     0  376.00000    0 1134          -  376.00000      -     -  168s
     0     0  376.00000    0 1153          -  376.00000      -     -  218s
     0     0  376.00000    0 1203          -  376.00000      -     -  242s
     0     0  376.00000    0 1195          -  376.00000      -     -  308s
     0     0  376.00000    0 1195          -  376.00000      -     -  363s
     0     2  376.00000    0 1195          -  376.00000      -     -  611s
     1     5  376.00000    1 1089          -  376.00000      - 17334  624s
     3     8  376.00000    2 1089          -  376.00000      -  6614  664s
     6     8  376.00000    2 1104          -  376.00000      -  4296  665s
     7    12  376.00000    3 1147          -  376.00000      -  4045  707s
    11    72  376.00000    4 1064          -  376.00000      -  3223  789s
    71   206  376.00000   13 1144          -  376.00000      -  1793  921s
   206   441  376.00000   32 1127          -  376.00000      -  1799 1097s
   446   679  377.00000   73 1052          -  376.00000      -  1652 1201s
   684   904  377.00000  109 1023          -  376.00000      -  1706 1308s
   909  1122  377.00000  144 1015          -  376.00000      -  1749 1415s
